caseWidth=10;
caseHeight=10;
caseCapacity=100;
n=20;
price=[52 43 84 8 26 10 99 71 24 36 11 62 83 52 29 43 35 62 90 94];
weight=[10 12 9 18 4 12 9 12 12 11 13 18 17 2 1 10 17 6 11 3];
side=[1 3 3 4 4 2 2 1 2 2 3 3 2 1 2 1 3 4 4 1];
